Version identifier: 22.1.1.0 | 2022-11-28 | 9160aff4d
CPXPARAM_ClockType                               1
CPXPARAM_Read_DataCheck                          1
CPXPARAM_Threads                                 1
CPXPARAM_TimeLimit                               7200
CPXPARAM_MIP_Tolerances_AbsMIPGap                0
CPXPARAM_MIP_Tolerances_MIPGap                   0
CPXPARAM_MIP_Tolerances_Integrality              0
Tried aggregator 4 times.
MIP Presolve eliminated 56299 rows and 1544 columns.
MIP Presolve modified 430 coefficients.
Aggregator did 560 substitutions.
Reduced MIP has 8421 rows, 2036 columns, and 24346 nonzeros.
Reduced MIP has 2036 binaries, 0 generals, 0 SOSs, and 0 indicators.
Presolve time = 0.11 sec. (70.37 ticks)
Found incumbent of value 36.000000 after 0.17 sec. (102.59 ticks)
Probing time = 0.01 sec. (3.66 ticks)
Tried aggregator 1 time.
Detecting symmetries...
MIP Presolve eliminated 8 rows and 0 columns.
MIP Presolve modified 8 coefficients.
Reduced MIP has 8413 rows, 2036 columns, and 24326 nonzeros.
Reduced MIP has 2036 binaries, 0 generals, 0 SOSs, and 0 indicators.
Presolve time = 0.04 sec. (18.38 ticks)
Probing time = 0.01 sec. (3.63 ticks)
Clique table members: 8090.
MIP emphasis: balance optimality and feasibility.
MIP search method: dynamic search.
Parallel mode: none, using 1 thread.
Root relaxation solution time = 0.39 sec. (214.22 ticks)

        Nodes                                         Cuts/
   Node  Left     Objective  IInf  Best Integer    Best Bound    ItCnt     Gap

*     0+    0                           36.0000     2720.0000              --- 
      0     0      816.0000   774       36.0000      816.0000     1791     --- 
      0     0      816.0000   518       36.0000      Cuts: 29     2228     --- 
      0     0      816.0000   536       36.0000     Cuts: 249     2915     --- 
      0     0      816.0000   504       36.0000   ZeroHalf: 9     3109     --- 
*     0+    0                           42.0000      816.0000              --- 
      0     0        cutoff             42.0000      816.0000     3109     --- 
      0     0      816.0000   479       42.0000  ZeroHalf: 66     3408     --- 
*     0+    0                          776.0000      816.0000             5.15%
      0     0      816.0000   511      776.0000 ZeroHalf: 170     3796    5.15%
Detecting symmetries...
*     0+    0                          806.0000      816.0000             1.24%
*     0+    0                          808.0000      816.0000             0.99%
Detecting symmetries...
      0     2      816.0000   311      808.0000      816.0000     3796    0.99%
Elapsed time = 6.11 sec. (3897.41 ticks, tree = 0.01 MB, solutions = 5)
      1     3      816.0000   389      808.0000      816.0000     7186    0.99%
      5     7      816.0000   319      808.0000      816.0000     8203    0.99%
      7     9      816.0000   284      808.0000      816.0000    10600    0.99%
     10    12      816.0000   307      808.0000      816.0000    11585    0.99%
     16    18      816.0000   408      808.0000      816.0000    13468    0.99%
     19    21      815.0000   620      808.0000      816.0000    15587    0.99%
     20    22      815.8406   702      808.0000      816.0000    17756    0.99%
     22    24      815.8406   699      808.0000      816.0000    18691    0.99%
     26    28      815.6667   665      808.0000      816.0000    20249    0.99%
     35    37      815.0000   572      808.0000      816.0000    24814    0.99%
Elapsed time = 14.65 sec. (9850.74 ticks, tree = 0.18 MB, solutions = 5)
     42    44      813.0000   409      808.0000      816.0000    30357    0.99%
     55    50      815.8957   690      808.0000      816.0000    33211    0.99%
     75    70      815.5000   655      808.0000      816.0000    35290    0.99%
     97    80      816.0000   341      808.0000      816.0000    39036    0.99%
    107    88        cutoff            808.0000      816.0000    42186    0.99%
    116    95      811.5000   218      808.0000      816.0000    45395    0.99%
    120    95      816.0000   348      808.0000      816.0000    46638    0.99%
    125    98      814.0000   591      808.0000      816.0000    50777    0.99%
    135   104      816.0000   421      808.0000      816.0000    54558    0.99%
    138   107      814.9730   714      808.0000      816.0000    58061    0.99%
Elapsed time = 28.64 sec. (20679.99 ticks, tree = 3.71 MB, solutions = 5)
    142   111      810.7950   636      808.0000      816.0000    62734    0.99%
    152   117      816.0000   372      808.0000      816.0000    67803    0.99%
    156   121      815.8000   660      808.0000      816.0000    71983    0.99%
    166   131      815.0000   518      808.0000      816.0000    75113    0.99%
    186   143        cutoff            808.0000      816.0000    78804    0.99%
    198   155      812.0000   416      808.0000      816.0000    81698    0.99%
    214   168      813.4286   498      808.0000      816.0000    84879    0.99%
    229   179      816.0000   331      808.0000      816.0000    87796    0.99%
    239   188      810.6866   493      808.0000      816.0000    91059    0.99%
    258   204      810.3846   527      808.0000      816.0000    95316    0.99%
Elapsed time = 44.06 sec. (32003.03 ticks, tree = 9.08 MB, solutions = 5)
    266   208      815.8750   723      808.0000      816.0000    98762    0.99%
    281   223      814.5000   306      808.0000      816.0000   102187    0.99%
    309   243      815.4286   661      808.0000      816.0000   105913    0.99%
    336   264      815.8750   711      808.0000      816.0000   109940    0.99%
    357   281      816.0000   433      808.0000      816.0000   112518    0.99%
    383   301      816.0000   309      808.0000      816.0000   116556    0.99%
    395   313      813.0000   527      808.0000      816.0000   119989    0.99%
    406   320      815.7632   610      808.0000      816.0000   123021    0.99%
    418   328      812.2500   519      808.0000      816.0000   126741    0.99%
    430   334      814.5000   248      808.0000      816.0000   129812    0.99%
Elapsed time = 57.41 sec. (42744.74 ticks, tree = 17.46 MB, solutions = 5)
    460   360      813.2400   619      808.0000      816.0000   133784    0.99%
    467   367      816.0000   349      808.0000      816.0000   136412    0.99%

Performing restart 1

Repeating presolve.
Tried aggregator 2 times.
MIP Presolve eliminated 42 rows and 5 columns.
MIP Presolve modified 9 coefficients.
Aggregator did 1 substitutions.
Reduced MIP has 8370 rows, 2030 columns, and 24187 nonzeros.
Reduced MIP has 2030 binaries, 0 generals, 0 SOSs, and 0 indicators.
Presolve time = 0.04 sec. (17.55 ticks)
Tried aggregator 1 time.
MIP Presolve eliminated 0 rows and 4 columns.
MIP Presolve modified 13 coefficients.
Reduced MIP has 8370 rows, 2026 columns, and 24181 nonzeros.
Reduced MIP has 2026 binaries, 0 generals, 0 SOSs, and 0 indicators.
Presolve time = 0.05 sec. (26.44 ticks)
Represolve time = 0.19 sec. (96.49 ticks)
    468     0      816.0000   527      808.0000      Cuts: 14   139798    0.99%
    468     0      815.9624   715      808.0000      Cuts: 23   140715    0.99%
    468     0      814.0000   697      808.0000      Cuts: 92   141149    0.74%
    468     0      814.0000   709      808.0000     Cuts: 148   141595    0.74%
    468     0      814.0000   579      808.0000       Cuts: 4   141869    0.74%
    468     0      814.0000   592      808.0000     Cuts: 118   142069    0.74%
    468     0      814.0000   653      808.0000  ZeroHalf: 17   142333    0.74%
    468     2      814.0000   380      808.0000      814.0000   142333    0.74%
    469     3      814.0000   541      808.0000      814.0000   145912    0.74%
    472     6      814.0000   368      808.0000      814.0000   147575    0.74%
    474     8      814.0000   409      808.0000      814.0000   150837    0.74%
    476    10      814.0000   517      808.0000      814.0000   152915    0.74%
    477    11      814.0000   628      808.0000      814.0000   154856    0.74%
    479    13      813.0000   609      808.0000      814.0000   158004    0.74%
    483    17      814.0000   645      808.0000      814.0000   159621    0.74%
Elapsed time = 86.25 sec. (61549.23 ticks, tree = 0.10 MB, solutions = 5)
    486    20      814.0000   606      808.0000      814.0000   161783    0.74%
    488    22      812.9935   562      808.0000      814.0000   164471    0.74%
    494    24      810.3913   567      808.0000      814.0000   165650    0.74%
    498    26      814.0000   319      808.0000      814.0000   167259    0.74%
    500    28      814.0000   321      808.0000      814.0000   169955    0.74%
    503    31      813.8333   623      808.0000      814.0000   172054    0.74%
    506    34      813.8605   472      808.0000      814.0000   175672    0.74%
    510    38      811.9155   585      808.0000      814.0000   179581    0.74%
*   517    33      integral     0      810.0000      814.0000   180693    0.49%
    519    34      814.0000   299      810.0000      814.0000   180731    0.49%
    525    36      814.0000   546      810.0000      814.0000   182553    0.49%
Elapsed time = 100.96 sec. (72310.18 ticks, tree = 1.16 MB, solutions = 6)
    535    39      814.0000   387      810.0000      814.0000   184788    0.49%
    545    43      814.0000   576      810.0000      814.0000   187440    0.49%
    553    46      812.0000   449      810.0000      814.0000   189848    0.49%
    559    43        cutoff            810.0000      814.0000   191715    0.49%
    568    47      813.2727   403      810.0000      814.0000   193845    0.49%
    574    49      813.1549   675      810.0000      814.0000   197011    0.49%
    586    50      812.4405   514      810.0000      814.0000   201691    0.49%
    597    51      814.0000   624      810.0000      814.0000   203730    0.49%
    606    53      812.0000   501      810.0000      814.0000   206131    0.49%
    615    52      812.8462   653      810.0000      814.0000   209567    0.49%
Elapsed time = 117.65 sec. (85102.17 ticks, tree = 2.48 MB, solutions = 6)
    623    50        cutoff            810.0000      814.0000   212001    0.49%
    630    49        cutoff            810.0000      814.0000   215909    0.49%
    633    48        cutoff            810.0000      814.0000   219701    0.49%
    635    50      813.1143   516      810.0000      814.0000   222522    0.49%
    643    52      812.4971   525      810.0000      814.0000   225923    0.49%
    646    51      813.4211   657      810.0000      814.0000   232298    0.49%
    652    51      814.0000   677      810.0000      814.0000   235171    0.49%
    659    52        cutoff            810.0000      814.0000   238263    0.49%
    664    53      813.2958   570      810.0000      814.0000   241168    0.49%
    677    49        cutoff            810.0000      813.8333   244692    0.47%
Elapsed time = 133.89 sec. (96801.07 ticks, tree = 2.23 MB, solutions = 6)
    686    49        cutoff            810.0000      813.7647   247918    0.46%
    706    43        cutoff            810.0000      813.5000   251325    0.43%
    715    40      812.0000   522      810.0000      813.3616   254693    0.42%
    722    35        cutoff            810.0000      813.3333   257817    0.41%
    735    25      813.0000   463      810.0000      813.0000   260514    0.37%
    739    25      812.0000   475      810.0000      813.0000   263425    0.37%
    762     4      812.0000   481      810.0000      812.0000   267086    0.25%

Clique cuts applied:  9
Zero-half cuts applied:  81
Gomory fractional cuts applied:  5

Root node processing (before b&c):
  Real time             =    6.08 sec. (3881.82 ticks)
Sequential b&c:
  Real time             =  138.27 sec. (100538.52 ticks)
                          ------------
Total (root+branch&cut) =  144.35 sec. (104420.34 ticks)
Solution is feasible.

---------------------
@@@ MIP_optimal
>>> Benchmark mc2024_track1_185.cnf k 5 OPT 810 TimeCost 152.45565462112427 TimeSolve 144.9363453388214 TimeRead 0.06334304809570312 TimeTrans 7.455966234207153
